100 4950
1 2 2
1 3 3
1 4 2
1 5 3
1 6 3
1 7 1
1 8 1
1 9 5
1 10 3
1 11 5
1 12 4
1 13 3
1 14 4
1 15 4
1 16 4
1 17 4
1 18 3
1 19 1
1 20 5
1 21 1
1 22 3
1 23 4
1 24 5
1 25 1
1 26 3
1 27 4
1 28 3
1 29 4
1 30 4
1 31 3
1 32 4
1 33 3
1 34 4
1 35 3
1 36 4
1 37 2
1 38 2
1 39 4
1 40 5
1 41 4
1 42 1
1 43 2
1 44 4
1 45 1
1 46 3
1 47 4
1 48 1
1 49 2
1 50 5
1 51 3
1 52 5
1 53 5
1 54 4
1 55 5
1 56 3
1 57 3
1 58 5
1 59 3
1 60 4
1 61 1
1 62 5
1 63 4
1 64 1
1 65 1
1 66 1
1 67 5
1 68 4
1 69 1
1 70 3
1 71 2
1 72 2
1 73 5
1 74 2
1 75 1
1 76 2
1 77 4
1 78 2
1 79 5
1 80 3
1 81 5
1 82 1
1 83 2
1 84 5
1 85 1
1 86 2
1 87 4
1 88 4
1 89 1
1 90 3
1 91 3
1 92 5
1 93 3
1 94 5
1 95 3
1 96 1
1 97 4
1 98 2
1 99 5
1 100 1
2 3 3
2 4 4
2 5 3
2 6 2
2 7 4
2 8 1
2 9 3
2 10 1
2 11 2
2 12 1
2 13 5
2 14 3
2 15 5
2 16 3
2 17 1
2 18 2
2 19 1
2 20 5
2 21 3
2 22 1
2 23 4
2 24 4
2 25 3
2 26 5
2 27 1
2 28 3
2 29 4
2 30 1
2 31 4
2 32 1
2 33 3
2 34 5
2 35 3
2 36 4
2 37 2
2 38 4
2 39 5
2 40 2
2 41 3
2 42 1
2 43 3
2 44 2
2 45 2
2 46 3
2 47 5
2 48 5
2 49 5
2 50 5
2 51 1
2 52 1
2 53 1
2 54 3
2 55 5
2 56 1
2 57 1
2 58 4
2 59 1
2 60 2
2 61 2
2 62 4
2 63 1
2 64 1
2 65 1
2 66 2
2 67 1
2 68 2
2 69 4
2 70 3
2 71 2
2 72 3
2 73 4
2 74 5
2 75 1
2 76 4
2 77 2
2 78 2
2 79 3
2 80 3
2 81 5
2 82 5
2 83 2
2 84 5
2 85 4
2 86 2
2 87 1
2 88 5
2 89 2
2 90 5
2 91 3
2 92 1
2 93 1
2 94 5
2 95 3
2 96 2
2 97 3
2 98 2
2 99 2
2 100 5
3 4 1
3 5 5
3 6 2
3 7 2
3 8 5
3 9 4
3 10 3
3 11 3
3 12 3
3 13 3
3 14 5
3 15 1
3 16 4
3 17 3
3 18 5
3 19 5
3 20 5
3 21 4
3 22 4
3 23 4
3 24 3
3 25 5
3 26 2
3 27 5
3 28 5
3 29 5
3 30 2
3 31 3
3 32 4
3 33 2
3 34 3
3 35 2
3 36 2
3 37 1
3 38 4
3 39 1
3 40 3
3 41 1
3 42 1
3 43 5
3 44 2
3 45 1
3 46 4
3 47 1
3 48 5
3 49 1
3 50 5
3 51 4
3 52 3
3 53 2
3 54 1
3 55 1
3 56 1
3 57 1
3 58 1
3 59 1
3 60 1
3 61 4
3 62 2
3 63 5
3 64 3
3 65 3
3 66 3
3 67 3
3 68 3
3 69 2
3 70 3
3 71 2
3 72 5
3 73 1
3 74 1
3 75 3
3 76 4
3 77 5
3 78 4
3 79 4
3 80 3
3 81 3
3 82 3
3 83 5
3 84 5
3 85 5
3 86 4
3 87 1
3 88 2
3 89 2
3 90 5
3 91 5
3 92 4
3 93 4
3 94 4
3 95 3
3 96 4
3 97 2
3 98 1
3 99 1
3 100 1
4 5 4
4 6 5
4 7 1
4 8 4
4 9 3
4 10 3
4 11 5
4 12 4
4 13 5
4 14 3
4 15 4
4 16 4
4 17 2
4 18 1
4 19 4
4 20 4
4 21 3
4 22 4
4 23 1
4 24 2
4 25 4
4 26 2
4 27 4
4 28 1
4 29 3
4 30 3
4 31 5
4 32 3
4 33 1
4 34 5
4 35 1
4 36 4
4 37 4
4 38 3
4 39 1
4 40 2
4 41 5
4 42 2
4 43 1
4 44 5
4 45 5
4 46 1
4 47 4
4 48 5
4 49 5
4 50 5
4 51 3
4 52 1
4 53 2
4 54 1
4 55 5
4 56 3
4 57 5
4 58 5
4 59 4
4 60 1
4 61 5
4 62 1
4 63 2
4 64 4
4 65 2
4 66 3
4 67 3
4 68 5
4 69 2
4 70 1
4 71 5
4 72 1
4 73 2
4 74 3
4 75 2
4 76 1
4 77 2
4 78 2
4 79 5
4 80 2
4 81 3
4 82 4
4 83 1
4 84 2
4 85 5
4 86 3
4 87 4
4 88 5
4 89 4
4 90 4
4 91 4
4 92 4
4 93 5
4 94 4
4 95 4
4 96 1
4 97 3
4 98 2
4 99 2
4 100 1
5 6 4
5 7 4
5 8 5
5 9 4
5 10 4
5 11 2
5 12 2
5 13 2
5 14 2
5 15 4
5 16 5
5 17 2
5 18 4
5 19 4
5 20 4
5 21 1
5 22 1
5 23 5
5 24 4
5 25 3
5 26 2
5 27 1
5 28 1
5 29 4
5 30 2
5 31 1
5 32 2
5 33 1
5 34 2
5 35 4
5 36 4
5 37 1
5 38 2
5 39 2
5 40 4
5 41 2
5 42 2
5 43 1
5 44 4
5 45 5
5 46 5
5 47 3
5 48 5
5 49 5
5 50 5
5 51 3
5 52 4
5 53 2
5 54 3
5 55 5
5 56 2
5 57 3
5 58 5
5 59 2
5 60 2
5 61 2
5 62 4
5 63 5
5 64 4
5 65 3
5 66 2
5 67 5
5 68 4
5 69 4
5 70 3
5 71 5
5 72 1
5 73 4
5 74 2
5 75 4
5 76 3
5 77 3
5 78 4
5 79 5
5 80 2
5 81 4
5 82 3
5 83 2
5 84 3
5 85 3
5 86 1
5 87 1
5 88 2
5 89 4
5 90 4
5 91 1
5 92 5
5 93 1
5 94 5
5 95 4
5 96 5
5 97 2
5 98 5
5 99 4
5 100 2
6 7 1
6 8 3
6 9 2
6 10 5
6 11 3
6 12 3
6 13 4
6 14 4
6 15 2
6 16 4
6 17 1
6 18 3
6 19 3
6 20 1
6 21 1
6 22 4
6 23 5
6 24 5
6 25 4
6 26 4
6 27 4
6 28 2
6 29 1
6 30 5
6 31 1
6 32 1
6 33 1
6 34 4
6 35 5
6 36 5
6 37 5
6 38 5
6 39 3
6 40 4
6 41 2
6 42 2
6 43 5
6 44 4
6 45 1
6 46 5
6 47 1
6 48 1
6 49 5
6 50 2
6 51 3
6 52 1
6 53 3
6 54 1
6 55 3
6 56 3
6 57 1
6 58 1
6 59 5
6 60 2
6 61 3
6 62 2
6 63 1
6 64 4
6 65 2
6 66 5
6 67 3
6 68 5
6 69 2
6 70 1
6 71 1
6 72 1
6 73 3
6 74 2
6 75 1
6 76 3
6 77 4
6 78 3
6 79 4
6 80 3
6 81 4
6 82 4
6 83 3
6 84 1
6 85 3
6 86 4
6 87 4
6 88 2
6 89 1
6 90 3
6 91 2
6 92 3
6 93 1
6 94 5
6 95 5
6 96 5
6 97 1
6 98 2
6 99 2
6 100 1
7 8 1
7 9 1
7 10 1
7 11 5
7 12 1
7 13 4
7 14 1
7 15 4
7 16 3
7 17 2
7 18 2
7 19 3
7 20 4
7 21 5
7 22 4
7 23 3
7 24 4
7 25 4
7 26 3
7 27 3
7 28 5
7 29 5
7 30 4
7 31 5
7 32 4
7 33 2
7 34 1
7 35 5
7 36 3
7 37 5
7 38 1
7 39 3
7 40 4
7 41 3
7 42 2
7 43 2
7 44 3
7 45 4
7 46 2
7 47 5
7 48 3
7 49 4
7 50 5
7 51 4
7 52 1
7 53 3
7 54 5
7 55 4
7 56 1
7 57 5
7 58 4
7 59 2
7 60 5
7 61 5
7 62 1
7 63 3
7 64 4
7 65 5
7 66 2
7 67 1
7 68 1
7 69 4
7 70 4
7 71 2
7 72 5
7 73 2
7 74 5
7 75 1
7 76 3
7 77 1
7 78 4
7 79 2
7 80 1
7 81 4
7 82 4
7 83 1
7 84 3
7 85 4
7 86 1
7 87 2
7 88 2
7 89 3
7 90 2
7 91 2
7 92 4
7 93 3
7 94 4
7 95 3
7 96 3
7 97 3
7 98 2
7 99 1
7 100 5
8 9 1
8 10 5
8 11 4
8 12 4
8 13 2
8 14 1
8 15 2
8 16 3
8 17 1
8 18 2
8 19 4
8 20 4
8 21 2
8 22 1
8 23 5
8 24 1
8 25 3
8 26 4
8 27 2
8 28 2
8 29 4
8 30 2
8 31 4
8 32 4
8 33 5
8 34 3
8 35 1
8 36 5
8 37 2
8 38 4
8 39 4
8 40 2
8 41 5
8 42 5
8 43 5
8 44 3
8 45 4
8 46 1
8 47 3
8 48 3
8 49 2
8 50 5
8 51 2
8 52 4
8 53 3
8 54 5
8 55 1
8 56 4
8 57 1
8 58 3
8 59 4
8 60 5
8 61 4
8 62 3
8 63 3
8 64 2
8 65 1
8 66 3
8 67 3
8 68 3
8 69 2
8 70 1
8 71 4
8 72 3
8 73 3
8 74 1
8 75 5
8 76 2
8 77 5
8 78 4
8 79 2
8 80 3
8 81 2
8 82 3
8 83 3
8 84 1
8 85 5
8 86 4
8 87 5
8 88 3
8 89 4
8 90 1
8 91 2
8 92 5
8 93 1
8 94 3
8 95 3
8 96 4
8 97 4
8 98 5
8 99 1
8 100 5
9 10 3
9 11 3
9 12 5
9 13 3
9 14 5
9 15 4
9 16 3
9 17 5
9 18 4
9 19 3
9 20 1
9 21 5
9 22 4
9 23 5
9 24 1
9 25 5
9 26 5
9 27 5
9 28 1
9 29 1
9 30 5
9 31 4
9 32 1
9 33 3
9 34 5
9 35 2
9 36 5
9 37 2
9 38 2
9 39 2
9 40 1
9 41 4
9 42 3
9 43 3
9 44 2
9 45 5
9 46 2
9 47 5
9 48 4
9 49 3
9 50 5
9 51 4
9 52 3
9 53 3
9 54 5
9 55 5
9 56 1
9 57 5
9 58 2
9 59 4
9 60 2
9 61 2
9 62 3
9 63 3
9 64 1
9 65 4
9 66 2
9 67 3
9 68 3
9 69 3
9 70 1
9 71 5
9 72 1
9 73 2
9 74 4
9 75 4
9 76 3
9 77 4
9 78 4
9 79 5
9 80 5
9 81 5
9 82 3
9 83 1
9 84 3
9 85 4
9 86 3
9 87 2
9 88 5
9 89 5
9 90 2
9 91 4
9 92 3
9 93 5
9 94 5
9 95 5
9 96 2
9 97 5
9 98 4
9 99 4
9 100 2
10 11 1
10 12 2
10 13 4
10 14 4
10 15 5
10 16 2
10 17 1
10 18 4
10 19 5
10 20 1
10 21 4
10 22 2
10 23 3
10 24 5
10 25 5
10 26 4
10 27 5
10 28 4
10 29 3
10 30 4
10 31 1
10 32 5
10 33 5
10 34 4
10 35 5
10 36 1
10 37 2
10 38 2
10 39 2
10 40 5
10 41 3
10 42 4
10 43 5
10 44 3
10 45 2
10 46 4
10 47 2
10 48 4
10 49 1
10 50 4
10 51 4
10 52 4
10 53 2
10 54 2
10 55 2
10 56 4
10 57 1
10 58 2
10 59 3
10 60 5
10 61 4
10 62 3
10 63 4
10 64 4
10 65 3
10 66 5
10 67 5
10 68 1
10 69 4
10 70 3
10 71 2
10 72 4
10 73 1
10 74 3
10 75 4
10 76 2
10 77 2
10 78 4
10 79 5
10 80 3
10 81 3
10 82 3
10 83 1
10 84 2
10 85 2
10 86 2
10 87 2
10 88 5
10 89 4
10 90 3
10 91 5
10 92 5
10 93 4
10 94 4
10 95 1
10 96 1
10 97 2
10 98 4
10 99 4
10 100 3
11 12 2
11 13 3
11 14 5
11 15 1
11 16 3
11 17 4
11 18 1
11 19 4
11 20 5
11 21 3
11 22 2
11 23 5
11 24 3
11 25 5
11 26 5
11 27 2
11 28 2
11 29 3
11 30 4
11 31 2
11 32 4
11 33 2
11 34 4
11 35 5
11 36 2
11 37 2
11 38 5
11 39 3
11 40 2
11 41 5
11 42 5
11 43 1
11 44 5
11 45 5
11 46 3
11 47 2
11 48 1
11 49 5
11 50 4
11 51 1
11 52 3
11 53 4
11 54 2
11 55 1
11 56 2
11 57 4
11 58 1
11 59 1
11 60 2
11 61 5
11 62 3
11 63 1
11 64 4
11 65 5
11 66 5
11 67 3
11 68 4
11 69 1
11 70 3
11 71 5
11 72 1
11 73 1
11 74 2
11 75 5
11 76 1
11 77 4
11 78 2
11 79 4
11 80 2
11 81 2
11 82 2
11 83 3
11 84 4
11 85 2
11 86 5
11 87 3
11 88 2
11 89 1
11 90 1
11 91 3
11 92 5
11 93 5
11 94 3
11 95 5
11 96 4
11 97 1
11 98 1
11 99 5
11 100 2
12 13 3
12 14 2
12 15 2
12 16 1
12 17 1
12 18 3
12 19 1
12 20 5
12 21 3
12 22 2
12 23 2
12 24 2
12 25 5
12 26 3
12 27 2
12 28 5
12 29 2
12 30 3
12 31 4
12 32 4
12 33 2
12 34 4
12 35 3
12 36 4
12 37 5
12 38 5
12 39 2
12 40 5
12 41 2
12 42 5
12 43 3
12 44 1
12 45 1
12 46 2
12 47 4
12 48 2
12 49 2
12 50 3
12 51 3
12 52 4
12 53 2
12 54 4
12 55 3
12 56 2
12 57 5
12 58 4
12 59 4
12 60 5
12 61 1
12 62 2
12 63 4
12 64 1
12 65 5
12 66 2
12 67 1
12 68 3
12 69 2
12 70 2
12 71 4
12 72 1
12 73 5
12 74 2
12 75 3
12 76 1
12 77 2
12 78 5
12 79 5
12 80 4
12 81 4
12 82 1
12 83 5
12 84 1
12 85 2
12 86 1
12 87 4
12 88 2
12 89 2
12 90 4
12 91 2
12 92 3
12 93 5
12 94 4
12 95 2
12 96 5
12 97 2
12 98 1
12 99 2
12 100 5
13 14 3
13 15 2
13 16 5
13 17 5
13 18 2
13 19 3
13 20 4
13 21 4
13 22 2
13 23 2
13 24 2
13 25 1
13 26 3
13 27 3
13 28 4
13 29 3
13 30 1
13 31 2
13 32 4
13 33 2
13 34 4
13 35 2
13 36 1
13 37 5
13 38 2
13 39 1
13 40 5
13 41 3
13 42 3
13 43 4
13 44 4
13 45 5
13 46 1
13 47 4
13 48 4
13 49 5
13 50 1
13 51 2
13 52 1
13 53 2
13 54 4
13 55 1
13 56 4
13 57 1
13 58 4
13 59 1
13 60 2
13 61 1
13 62 2
13 63 2
13 64 4
13 65 3
13 66 3
13 67 1
13 68 1
13 69 2
13 70 5
13 71 3
13 72 5
13 73 4
13 74 3
13 75 4
13 76 4
13 77 2
13 78 4
13 79 3
13 80 5
13 81 4
13 82 4
13 83 1
13 84 3
13 85 5
13 86 2
13 87 1
13 88 3
13 89 5
13 90 1
13 91 2
13 92 3
13 93 4
13 94 4
13 95 5
13 96 1
13 97 5
13 98 3
13 99 4
13 100 1
14 15 5
14 16 1
14 17 1
14 18 2
14 19 1
14 20 5
14 21 3
14 22 1
14 23 4
14 24 2
14 25 2
14 26 5
14 27 1
14 28 4
14 29 3
14 30 1
14 31 3
14 32 5
14 33 4
14 34 3
14 35 2
14 36 2
14 37 2
14 38 1
14 39 2
14 40 5
14 41 3
14 42 5
14 43 5
14 44 1
14 45 5
14 46 2
14 47 2
14 48 4
14 49 5
14 50 3
14 51 1
14 52 5
14 53 3
14 54 1
14 55 3
14 56 2
14 57 3
14 58 2
14 59 4
14 60 4
14 61 2
14 62 4
14 63 3
14 64 2
14 65 2
14 66 2
14 67 5
14 68 2
14 69 1
14 70 2
14 71 3
14 72 3
14 73 2
14 74 2
14 75 5
14 76 1
14 77 2
14 78 1
14 79 5
14 80 5
14 81 2
14 82 5
14 83 1
14 84 3
14 85 2
14 86 2
14 87 5
14 88 2
14 89 1
14 90 3
14 91 4
14 92 4
14 93 3
14 94 1
14 95 4
14 96 1
14 97 1
14 98 2
14 99 4
14 100 5
15 16 4
15 17 1
15 18 2
15 19 5
15 20 1
15 21 1
15 22 4
15 23 1
15 24 5
15 25 2
15 26 4
15 27 1
15 28 1
15 29 2
15 30 3
15 31 2
15 32 2
15 33 2
15 34 2
15 35 1
15 36 1
15 37 1
15 38 3
15 39 1
15 40 5
15 41 4
15 42 3
15 43 2
15 44 3
15 45 4
15 46 1
15 47 2
15 48 2
15 49 1
15 50 2
15 51 2
15 52 5
15 53 4
15 54 3
15 55 3
15 56 1
15 57 3
15 58 5
15 59 3
15 60 1
15 61 2
15 62 5
15 63 2
15 64 2
15 65 3
15 66 3
15 67 5
15 68 2
15 69 1
15 70 2
15 71 4
15 72 5
15 73 3
15 74 5
15 75 4
15 76 3
15 77 4
15 78 5
15 79 4
15 80 5
15 81 1
15 82 4
15 83 1
15 84 3
15 85 4
15 86 1
15 87 2
15 88 5
15 89 1
15 90 2
15 91 4
15 92 5
15 93 1
15 94 2
15 95 5
15 96 2
15 97 5
15 98 2
15 99 2
15 100 2
16 17 2
16 18 1
16 19 2
16 20 4
16 21 2
16 22 4
16 23 4
16 24 3
16 25 2
16 26 4
16 27 3
16 28 2
16 29 5
16 30 4
16 31 4
16 32 4
16 33 1
16 34 2
16 35 5
16 36 2
16 37 5
16 38 4
16 39 2
16 40 3
16 41 4
16 42 1
16 43 3
16 44 2
16 45 2
16 46 1
16 47 5
16 48 3
16 49 1
16 50 5
16 51 3
16 52 5
16 53 5
16 54 3
16 55 1
16 56 1
16 57 5
16 58 2
16 59 4
16 60 3
16 61 4
16 62 3
16 63 2
16 64 3
16 65 3
16 66 3
16 67 5
16 68 2
16 69 2
16 70 1
16 71 1
16 72 5
16 73 5
16 74 4
16 75 5
16 76 2
16 77 5
16 78 3
16 79 4
16 80 3
16 81 1
16 82 1
16 83 2
16 84 2
16 85 5
16 86 4
16 87 1
16 88 2
16 89 1
16 90 1
16 91 5
16 92 2
16 93 1
16 94 5
16 95 2
16 96 1
16 97 4
16 98 3
16 99 1
16 100 2
17 18 2
17 19 2
17 20 2
17 21 2
17 22 3
17 23 1
17 24 3
17 25 1
17 26 1
17 27 1
17 28 2
17 29 3
17 30 5
17 31 2
17 32 5
17 33 2
17 34 4
17 35 4
17 36 5
17 37 1
17 38 3
17 39 2
17 40 2
17 41 3
17 42 3
17 43 5
17 44 1
17 45 3
17 46 5
17 47 3
17 48 2
17 49 3
17 50 2
17 51 2
17 52 4
17 53 4
17 54 2
17 55 5
17 56 4
17 57 5
17 58 2
17 59 2
17 60 1
17 61 2
17 62 4
17 63 5
17 64 1
17 65 5
17 66 2
17 67 1
17 68 1
17 69 5
17 70 1
17 71 1
17 72 2
17 73 1
17 74 5
17 75 1
17 76 2
17 77 3
17 78 4
17 79 2
17 80 3
17 81 3
17 82 3
17 83 1
17 84 1
17 85 4
17 86 5
17 87 2
17 88 4
17 89 5
17 90 5
17 91 5
17 92 2
17 93 3
17 94 4
17 95 4
17 96 3
17 97 2
17 98 2
17 99 3
17 100 2
18 19 3
18 20 2
18 21 5
18 22 5
18 23 2
18 24 2
18 25 5
18 26 3
18 27 3
18 28 2
18 29 5
18 30 2
18 31 1
18 32 1
18 33 1
18 34 4
18 35 5
18 36 5
18 37 3
18 38 3
18 39 5
18 40 2
18 41 1
18 42 2
18 43 4
18 44 5
18 45 1
18 46 5
18 47 4
18 48 2
18 49 4
18 50 2
18 51 1
18 52 5
18 53 1
18 54 2
18 55 1
18 56 2
18 57 5
18 58 1
18 59 5
18 60 3
18 61 2
18 62 2
18 63 5
18 64 2
18 65 4
18 66 2
18 67 3
18 68 4
18 69 3
18 70 3
18 71 3
18 72 4
18 73 2
18 74 1
18 75 3
18 76 4
18 77 4
18 78 3
18 79 5
18 80 5
18 81 5
18 82 1
18 83 3
18 84 1
18 85 3
18 86 4
18 87 1
18 88 5
18 89 5
18 90 3
18 91 2
18 92 2
18 93 3
18 94 5
18 95 4
18 96 1
18 97 3
18 98 3
18 99 3
18 100 4
19 20 3
19 21 4
19 22 5
19 23 4
19 24 1
19 25 5
19 26 5
19 27 1
19 28 5
19 29 5
19 30 4
19 31 1
19 32 2
19 33 5
19 34 2
19 35 1
19 36 5
19 37 4
19 38 3
19 39 4
19 40 4
19 41 2
19 42 3
19 43 1
19 44 1
19 45 4
19 46 3
19 47 2
19 48 4
19 49 3
19 50 5
19 51 4
19 52 5
19 53 3
19 54 2
19 55 2
19 56 4
19 57 2
19 58 5
19 59 2
19 60 3
19 61 1
19 62 4
19 63 3
19 64 4
19 65 4
19 66 5
19 67 1
19 68 2
19 69 5
19 70 2
19 71 2
19 72 3
19 73 5
19 74 5
19 75 5
19 76 5
19 77 1
19 78 3
19 79 1
19 80 3
19 81 3
19 82 3
19 83 2
19 84 3
19 85 4
19 86 5
19 87 1
19 88 5
19 89 3
19 90 3
19 91 3
19 92 1
19 93 3
19 94 3
19 95 1
19 96 3
19 97 2
19 98 1
19 99 1
19 100 4
20 21 5
20 22 3
20 23 3
20 24 5
20 25 4
20 26 3
20 27 2
20 28 5
20 29 2
20 30 3
20 31 1
20 32 2
20 33 3
20 34 5
20 35 5
20 36 2
20 37 3
20 38 2
20 39 4
20 40 5
20 41 5
20 42 4
20 43 3
20 44 1
20 45 2
20 46 1
20 47 3
20 48 1
20 49 5
20 50 2
20 51 2
20 52 3
20 53 1
20 54 4
20 55 3
20 56 5
20 57 3
20 58 2
20 59 5
20 60 2
20 61 4
20 62 1
20 63 5
20 64 2
20 65 5
20 66 3
20 67 4
20 68 5
20 69 1
20 70 3
20 71 5
20 72 5
20 73 3
20 74 2
20 75 2
20 76 2
20 77 2
20 78 4
20 79 5
20 80 1
20 81 4
20 82 4
20 83 1
20 84 4
20 85 2
20 86 3
20 87 1
20 88 5
20 89 5
20 90 3
20 91 4
20 92 4
20 93 1
20 94 1
20 95 3
20 96 2
20 97 3
20 98 2
20 99 2
20 100 5
21 22 1
21 23 5
21 24 1
21 25 3
21 26 4
21 27 5
21 28 2
21 29 3
21 30 5
21 31 4
21 32 3
21 33 5
21 34 1
21 35 2
21 36 2
21 37 4
21 38 2
21 39 3
21 40 3
21 41 5
21 42 2
21 43 5
21 44 5
21 45 3
21 46 3
21 47 2
21 48 1
21 49 1
21 50 4
21 51 3
21 52 4
21 53 5
21 54 4
21 55 5
21 56 2
21 57 2
21 58 1
21 59 5
21 60 4
21 61 5
21 62 5
21 63 2
21 64 2
21 65 3
21 66 3
21 67 4
21 68 4
21 69 2
21 70 2
21 71 1
21 72 2
21 73 5
21 74 4
21 75 4
21 76 2
21 77 1
21 78 4
21 79 1
21 80 2
21 81 2
21 82 4
21 83 3
21 84 4
21 85 3
21 86 2
21 87 1
21 88 1
21 89 2
21 90 1
21 91 5
21 92 3
21 93 2
21 94 5
21 95 2
21 96 1
21 97 1
21 98 4
21 99 3
21 100 1
22 23 1
22 24 3
22 25 3
22 26 4
22 27 5
22 28 5
22 29 2
22 30 5
22 31 3
22 32 5
22 33 2
22 34 3
22 35 5
22 36 3
22 37 1
22 38 1
22 39 4
22 40 5
22 41 4
22 42 3
22 43 2
22 44 4
22 45 2
22 46 4
22 47 4
22 48 5
22 49 2
22 50 2
22 51 2
22 52 4
22 53 3
22 54 3
22 55 5
22 56 3
22 57 5
22 58 2
22 59 5
22 60 2
22 61 4
22 62 1
22 63 5
22 64 4
22 65 2
22 66 5
22 67 4
22 68 4
22 69 5
22 70 3
22 71 5
22 72 5
22 73 1
22 74 3
22 75 3
22 76 4
22 77 5
22 78 4
22 79 5
22 80 1
22 81 2
22 82 3
22 83 4
22 84 5
22 85 5
22 86 4
22 87 1
22 88 5
22 89 5
22 90 5
22 91 3
22 92 4
22 93 3
22 94 1
22 95 3
22 96 3
22 97 1
22 98 4
22 99 4
22 100 5
23 24 5
23 25 4
23 26 5
23 27 3
23 28 5
23 29 5
23 30 1
23 31 3
23 32 4
23 33 4
23 34 4
23 35 3
23 36 3
23 37 4
23 38 4
23 39 4
23 40 2
23 41 5
23 42 5
23 43 3
23 44 2
23 45 1
23 46 5
23 47 1
23 48 4
23 49 3
23 50 1
23 51 3
23 52 5
23 53 4
23 54 3
23 55 1
23 56 5
23 57 1
23 58 2
23 59 2
23 60 2
23 61 4
23 62 3
23 63 3
23 64 4
23 65 2
23 66 3
23 67 3
23 68 1
23 69 3
23 70 5
23 71 5
23 72 4
23 73 3
23 74 4
23 75 2
23 76 1
23 77 1
23 78 1
23 79 3
23 80 4
23 81 3
23 82 2
23 83 4
23 84 4
23 85 2
23 86 5
23 87 1
23 88 4
23 89 4
23 90 5
23 91 1
23 92 4
23 93 5
23 94 5
23 95 2
23 96 3
23 97 5
23 98 1
23 99 5
23 100 2
24 25 5
24 26 3
24 27 5
24 28 4
24 29 2
24 30 3
24 31 4
24 32 5
24 33 5
24 34 5
24 35 2
24 36 3
24 37 4
24 38 3
24 39 5
24 40 5
24 41 5
24 42 1
24 43 2
24 44 4
24 45 1
24 46 4
24 47 4
24 48 2
24 49 4
24 50 1
24 51 4
24 52 4
24 53 1
24 54 2
24 55 5
24 56 2
24 57 2
24 58 2
24 59 2
24 60 5
24 61 5
24 62 5
24 63 5
24 64 1
24 65 4
24 66 5
24 67 2
24 68 4
24 69 1
24 70 1
24 71 1
24 72 1
24 73 4
24 74 4
24 75 3
24 76 2
24 77 4
24 78 2
24 79 3
24 80 5
24 81 2
24 82 4
24 83 2
24 84 5
24 85 1
24 86 4
24 87 1
24 88 5
24 89 2
24 90 1
24 91 4
24 92 1
24 93 1
24 94 3
24 95 5
24 96 3
24 97 3
24 98 4
24 99 4
24 100 1
25 26 5
25 27 4
25 28 3
25 29 5
25 30 1
25 31 3
25 32 2
25 33 5
25 34 3
25 35 4
25 36 2
25 37 2
25 38 4
25 39 3
25 40 3
25 41 5
25 42 4
25 43 1
25 44 2
25 45 1
25 46 3
25 47 4
25 48 3
25 49 1
25 50 4
25 51 4
25 52 1
25 53 5
25 54 4
25 55 1
25 56 1
25 57 3
25 58 2
25 59 1
25 60 3
25 61 2
25 62 5
25 63 5
25 64 5
25 65 5
25 66 3
25 67 2
25 68 4
25 69 1
25 70 3
25 71 4
25 72 1
25 73 1
25 74 4
25 75 2
25 76 2
25 77 4
25 78 3
25 79 4
25 80 3
25 81 1
25 82 2
25 83 1
25 84 3
25 85 4
25 86 3
25 87 3
25 88 5
25 89 4
25 90 3
25 91 4
25 92 1
25 93 3
25 94 4
25 95 1
25 96 4
25 97 1
25 98 2
25 99 1
25 100 2
26 27 4
26 28 1
26 29 2
26 30 1
26 31 3
26 32 5
26 33 3
26 34 1
26 35 3
26 36 2
26 37 5
26 38 1
26 39 5
26 40 1
26 41 2
26 42 2
26 43 5
26 44 2
26 45 4
26 46 3
26 47 1
26 48 4
26 49 1
26 50 5
26 51 4
26 52 3
26 53 1
26 54 5
26 55 2
26 56 1
26 57 2
26 58 5
26 59 1
26 60 2
26 61 3
26 62 4
26 63 1
26 64 3
26 65 5
26 66 1
26 67 3
26 68 1
26 69 1
26 70 1
26 71 3
26 72 5
26 73 2
26 74 1
26 75 4
26 76 3
26 77 5
26 78 3
26 79 1
26 80 2
26 81 1
26 82 3
26 83 3
26 84 1
26 85 2
26 86 4
26 87 5
26 88 1
26 89 1
26 90 4
26 91 2
26 92 2
26 93 5
26 94 2
26 95 1
26 96 5
26 97 5
26 98 5
26 99 4
26 100 4
27 28 3
27 29 1
27 30 4
27 31 4
27 32 2
27 33 5
27 34 2
27 35 2
27 36 3
27 37 5
27 38 4
27 39 3
27 40 2
27 41 5
27 42 4
27 43 1
27 44 1
27 45 3
27 46 4
27 47 5
27 48 2
27 49 1
27 50 3
27 51 4
27 52 4
27 53 4
27 54 1
27 55 1
27 56 5
27 57 3
27 58 2
27 59 3
27 60 4
27 61 5
27 62 4
27 63 4
27 64 5
27 65 5
27 66 4
27 67 4
27 68 5
27 69 2
27 70 5
27 71 1
27 72 2
27 73 2
27 74 3
27 75 4
27 76 2
27 77 5
27 78 1
27 79 5
27 80 4
27 81 1
27 82 3
27 83 5
27 84 3
27 85 5
27 86 2
27 87 4
27 88 4
27 89 3
27 90 1
27 91 4
27 92 4
27 93 4
27 94 5
27 95 2
27 96 3
27 97 3
27 98 3
27 99 5
27 100 2
28 29 3
28 30 3
28 31 1
28 32 2
28 33 3
28 34 4
28 35 3
28 36 2
28 37 2
28 38 4
28 39 1
28 40 2
28 41 1
28 42 3
28 43 4
28 44 1
28 45 1
28 46 1
28 47 2
28 48 4
28 49 2
28 50 3
28 51 5
28 52 2
28 53 3
28 54 3
28 55 4
28 56 3
28 57 5
28 58 4
28 59 1
28 60 3
28 61 4
28 62 2
28 63 5
28 64 2
28 65 4
28 66 4
28 67 2
28 68 2
28 69 5
28 70 4
28 71 2
28 72 2
28 73 2
28 74 4
28 75 2
28 76 2
28 77 3
28 78 1
28 79 3
28 80 2
28 81 4
28 82 3
28 83 5
28 84 1
28 85 3
28 86 3
28 87 2
28 88 3
28 89 1
28 90 4
28 91 2
28 92 5
28 93 4
28 94 2
28 95 2
28 96 2
28 97 5
28 98 4
28 99 2
28 100 2
29 30 4
29 31 4
29 32 4
29 33 5
29 34 1
29 35 2
29 36 4
29 37 2
29 38 1
29 39 1
29 40 4
29 41 5
29 42 5
29 43 5
29 44 2
29 45 5
29 46 2
29 47 3
29 48 4
29 49 4
29 50 3
29 51 5
29 52 1
29 53 4
29 54 5
29 55 1
29 56 3
29 57 1
29 58 1
29 59 2
29 60 5
29 61 2
29 62 1
29 63 2
29 64 5
29 65 4
29 66 2
29 67 5
29 68 5
29 69 4
29 70 3
29 71 5
29 72 4
29 73 1
29 74 3
29 75 1
29 76 3
29 77 1
29 78 5
29 79 3
29 80 2
29 81 2
29 82 5
29 83 5
29 84 1
29 85 2
29 86 3
29 87 3
29 88 1
29 89 3
29 90 2
29 91 2
29 92 3
29 93 5
29 94 1
29 95 4
29 96 2
29 97 1
29 98 3
29 99 4
29 100 3
30 31 4
30 32 5
30 33 1
30 34 1
30 35 2
30 36 5
30 37 3
30 38 3
30 39 1
30 40 4
30 41 4
30 42 5
30 43 1
30 44 3
30 45 1
30 46 3
30 47 3
30 48 1
30 49 2
30 50 5
30 51 3
30 52 2
30 53 5
30 54 2
30 55 1
30 56 1
30 57 4
30 58 1
30 59 5
30 60 4
30 61 4
30 62 3
30 63 2
30 64 3
30 65 4
30 66 3
30 67 4
30 68 1
30 69 2
30 70 2
30 71 4
30 72 3
30 73 1
30 74 2
30 75 1
30 76 2
30 77 2
30 78 4
30 79 4
30 80 3
30 81 1
30 82 3
30 83 2
30 84 5
30 85 4
30 86 5
30 87 5
30 88 1
30 89 3
30 90 2
30 91 5
30 92 4
30 93 1
30 94 3
30 95 2
30 96 4
30 97 5
30 98 1
30 99 5
30 100 3
31 32 2
31 33 4
31 34 5
31 35 4
31 36 3
31 37 1
31 38 2
31 39 4
31 40 2
31 41 1
31 42 2
31 43 5
31 44 4
31 45 4
31 46 5
31 47 2
31 48 1
31 49 3
31 50 2
31 51 1
31 52 1
31 53 3
31 54 3
31 55 1
31 56 4
31 57 3
31 58 2
31 59 4
31 60 2
31 61 1
31 62 3
31 63 5
31 64 2
31 65 3
31 66 5
31 67 3
31 68 2
31 69 2
31 70 2
31 71 1
31 72 1
31 73 1
31 74 5
31 75 1
31 76 5
31 77 1
31 78 1
31 79 3
31 80 3
31 81 2
31 82 1
31 83 4
31 84 5
31 85 4
31 86 5
31 87 3
31 88 2
31 89 2
31 90 2
31 91 1
31 92 3
31 93 1
31 94 3
31 95 5
31 96 4
31 97 1
31 98 5
31 99 5
31 100 1
32 33 5
32 34 1
32 35 5
32 36 2
32 37 1
32 38 4
32 39 2
32 40 1
32 41 1
32 42 3
32 43 4
32 44 4
32 45 4
32 46 4
32 47 4
32 48 3
32 49 1
32 50 5
32 51 2
32 52 1
32 53 3
32 54 1
32 55 4
32 56 5
32 57 5
32 58 5
32 59 2
32 60 3
32 61 1
32 62 5
32 63 1
32 64 3
32 65 2
32 66 3
32 67 5
32 68 5
32 69 5
32 70 5
32 71 3
32 72 2
32 73 2
32 74 3
32 75 5
32 76 1
32 77 3
32 78 5
32 79 1
32 80 1
32 81 2
32 82 2
32 83 4
32 84 3
32 85 3
32 86 2
32 87 5
32 88 5
32 89 5
32 90 4
32 91 5
32 92 5
32 93 1
32 94 1
32 95 5
32 96 4
32 97 1
32 98 4
32 99 5
32 100 1
33 34 5
33 35 5
33 36 4
33 37 2
33 38 2
33 39 5
33 40 1
33 41 5
33 42 1
33 43 3
33 44 2
33 45 3
33 46 3
33 47 2
33 48 2
33 49 5
33 50 3
33 51 2
33 52 5
33 53 1
33 54 5
33 55 2
33 56 2
33 57 1
33 58 2
33 59 4
33 60 1
33 61 5
33 62 4
33 63 1
33 64 4
33 65 5
33 66 1
33 67 4
33 68 1
33 69 5
33 70 5
33 71 5
33 72 1
33 73 2
33 74 4
33 75 3
33 76 2
33 77 1
33 78 2
33 79 2
33 80 2
33 81 2
33 82 4
33 83 3
33 84 4
33 85 2
33 86 3
33 87 2
33 88 2
33 89 1
33 90 3
33 91 4
33 92 3
33 93 1
33 94 5
33 95 1
33 96 2
33 97 5
33 98 5
33 99 5
33 100 1
34 35 5
34 36 2
34 37 1
34 38 3
34 39 3
34 40 2
34 41 4
34 42 1
34 43 1
34 44 2
34 45 1
34 46 5
34 47 1
34 48 2
34 49 2
34 50 2
34 51 1
34 52 2
34 53 1
34 54 3
34 55 1
34 56 1
34 57 1
34 58 4
34 59 1
34 60 3
34 61 4
34 62 5
34 63 4
34 64 2
34 65 2
34 66 5
34 67 1
34 68 4
34 69 1
34 70 4
34 71 5
34 72 4
34 73 1
34 74 5
34 75 1
34 76 2
34 77 1
34 78 4
34 79 3
34 80 4
34 81 1
34 82 5
34 83 1
34 84 1
34 85 1
34 86 2
34 87 5
34 88 1
34 89 4
34 90 5
34 91 4
34 92 5
34 93 3
34 94 3
34 95 3
34 96 4
34 97 3
34 98 1
34 99 3
34 100 4
35 36 2
35 37 4
35 38 5
35 39 3
35 40 3
35 41 3
35 42 5
35 43 5
35 44 1
35 45 1
35 46 2
35 47 5
35 48 2
35 49 2
35 50 2
35 51 4
35 52 2
35 53 3
35 54 3
35 55 4
35 56 3
35 57 4
35 58 4
35 59 4
35 60 3
35 61 1
35 62 3
35 63 5
35 64 2
35 65 5
35 66 5
35 67 1
35 68 2
35 69 3
35 70 1
35 71 1
35 72 1
35 73 5
35 74 5
35 75 1
35 76 4
35 77 2
35 78 2
35 79 4
35 80 5
35 81 2
35 82 4
35 83 1
35 84 1
35 85 3
35 86 4
35 87 1
35 88 1
35 89 1
35 90 3
35 91 4
35 92 4
35 93 2
35 94 4
35 95 2
35 96 3
35 97 3
35 98 2
35 99 2
35 100 1
36 37 2
36 38 2
36 39 1
36 40 1
36 41 5
36 42 2
36 43 4
36 44 4
36 45 5
36 46 5
36 47 1
36 48 4
36 49 4
36 50 5
36 51 3
36 52 2
36 53 1
36 54 2
36 55 4
36 56 1
36 57 2
36 58 1
36 59 5
36 60 3
36 61 4
36 62 2
36 63 5
36 64 2
36 65 5
36 66 1
36 67 1
36 68 1
36 69 5
36 70 2
36 71 4
36 72 3
36 73 1
36 74 5
36 75 4
36 76 1
36 77 5
36 78 5
36 79 4
36 80 1
36 81 5
36 82 4
36 83 3
36 84 4
36 85 4
36 86 5
36 87 2
36 88 1
36 89 1
36 90 1
36 91 2
36 92 4
36 93 4
36 94 1
36 95 5
36 96 5
36 97 3
36 98 1
36 99 2
36 100 4
37 38 1
37 39 3
37 40 5
37 41 4
37 42 3
37 43 5
37 44 1
37 45 3
37 46 1
37 47 3
37 48 1
37 49 4
37 50 2
37 51 5
37 52 2
37 53 1
37 54 4
37 55 4
37 56 1
37 57 5
37 58 5
37 59 2
37 60 1
37 61 2
37 62 2
37 63 2
37 64 2
37 65 3
37 66 2
37 67 2
37 68 5
37 69 1
37 70 5
37 71 4
37 72 5
37 73 4
37 74 1
37 75 5
37 76 1
37 77 3
37 78 2
37 79 1
37 80 2
37 81 5
37 82 4
37 83 1
37 84 5
37 85 3
37 86 4
37 87 5
37 88 3
37 89 3
37 90 4
37 91 5
37 92 5
37 93 2
37 94 1
37 95 4
37 96 5
37 97 1
37 98 1
37 99 4
37 100 3
38 39 5
38 40 4
38 41 3
38 42 2
38 43 4
38 44 4
38 45 3
38 46 2
38 47 4
38 48 3
38 49 2
38 50 2
38 51 2
38 52 3
38 53 1
38 54 5
38 55 4
38 56 3
38 57 1
38 58 3
38 59 1
38 60 5
38 61 5
38 62 5
38 63 2
38 64 5
38 65 1
38 66 4
38 67 2
38 68 4
38 69 3
38 70 4
38 71 4
38 72 4
38 73 5
38 74 2
38 75 2
38 76 1
38 77 3
38 78 2
38 79 4
38 80 5
38 81 2
38 82 5
38 83 1
38 84 5
38 85 3
38 86 4
38 87 5
38 88 3
38 89 5
38 90 1
38 91 2
38 92 3
38 93 4
38 94 5
38 95 5
38 96 5
38 97 3
38 98 1
38 99 4
38 100 3
39 40 3
39 41 1
39 42 1
39 43 3
39 44 5
39 45 2
39 46 5
39 47 3
39 48 3
39 49 4
39 50 3
39 51 5
39 52 2
39 53 4
39 54 5
39 55 3
39 56 1
39 57 2
39 58 1
39 59 5
39 60 3
39 61 5
39 62 3
39 63 4
39 64 3
39 65 3
39 66 5
39 67 3
39 68 3
39 69 1
39 70 3
39 71 5
39 72 5
39 73 5
39 74 1
39 75 5
39 76 3
39 77 3
39 78 2
39 79 3
39 80 5
39 81 5
39 82 3
39 83 5
39 84 5
39 85 3
39 86 5
39 87 3
39 88 3
39 89 2
39 90 3
39 91 1
39 92 5
39 93 5
39 94 4
39 95 3
39 96 4
39 97 5
39 98 2
39 99 3
39 100 1
40 41 4
40 42 4
40 43 1
40 44 3
40 45 1
40 46 4
40 47 2
40 48 4
40 49 3
40 50 3
40 51 1
40 52 1
40 53 5
40 54 3
40 55 3
40 56 3
40 57 1
40 58 2
40 59 4
40 60 1
40 61 3
40 62 3
40 63 2
40 64 2
40 65 4
40 66 5
40 67 5
40 68 1
40 69 1
40 70 5
40 71 2
40 72 4
40 73 2
40 74 4
40 75 1
40 76 5
40 77 5
40 78 5
40 79 3
40 80 5
40 81 1
40 82 5
40 83 1
40 84 4
40 85 2
40 86 2
40 87 3
40 88 1
40 89 4
40 90 1
40 91 1
40 92 5
40 93 3
40 94 4
40 95 1
40 96 4
40 97 3
40 98 5
40 99 4
40 100 3
41 42 2
41 43 1
41 44 5
41 45 5
41 46 5
41 47 3
41 48 5
41 49 2
41 50 2
41 51 5
41 52 4
41 53 1
41 54 5
41 55 4
41 56 1
41 57 3
41 58 2
41 59 4
41 60 2
41 61 3
41 62 3
41 63 4
41 64 4
41 65 3
41 66 2
41 67 5
41 68 1
41 69 5
41 70 2
41 71 1
41 72 5
41 73 5
41 74 3
41 75 2
41 76 3
41 77 3
41 78 1
41 79 3
41 80 4
41 81 3
41 82 1
41 83 3
41 84 2
41 85 2
41 86 3
41 87 5
41 88 1
41 89 3
41 90 1
41 91 5
41 92 5
41 93 1
41 94 4
41 95 4
41 96 4
41 97 4
41 98 2
41 99 1
41 100 3
42 43 5
42 44 1
42 45 2
42 46 1
42 47 5
42 48 5
42 49 2
42 50 1
42 51 2
42 52 5
42 53 3
42 54 3
42 55 4
42 56 3
42 57 5
42 58 4
42 59 4
42 60 4
42 61 1
42 62 4
42 63 5
42 64 3
42 65 1
42 66 3
42 67 2
42 68 3
42 69 5
42 70 5
42 71 4
42 72 3
42 73 4
42 74 2
42 75 2
42 76 4
42 77 1
42 78 3
42 79 5
42 80 1
42 81 3
42 82 5
42 83 5
42 84 2
42 85 3
42 86 5
42 87 3
42 88 4
42 89 4
42 90 1
42 91 1
42 92 4
42 93 2
42 94 5
42 95 4
42 96 3
42 97 1
42 98 3
42 99 3
42 100 4
43 44 3
43 45 1
43 46 5
43 47 5
43 48 2
43 49 3
43 50 2
43 51 1
43 52 4
43 53 3
43 54 2
43 55 1
43 56 4
43 57 4
43 58 5
43 59 4
43 60 4
43 61 1
43 62 5
43 63 5
43 64 5
43 65 5
43 66 3
43 67 1
43 68 4
43 69 3
43 70 1
43 71 1
43 72 4
43 73 1
43 74 2
43 75 3
43 76 1
43 77 4
43 78 4
43 79 2
43 80 3
43 81 2
43 82 1
43 83 3
43 84 5
43 85 2
43 86 5
43 87 1
43 88 4
43 89 1
43 90 1
43 91 5
43 92 2
43 93 5
43 94 2
43 95 3
43 96 4
43 97 4
43 98 2
43 99 1
43 100 2
44 45 1
44 46 4
44 47 2
44 48 3
44 49 3
44 50 4
44 51 2
44 52 5
44 53 2
44 54 2
44 55 4
44 56 2
44 57 2
44 58 4
44 59 4
44 60 2
44 61 5
44 62 1
44 63 4
44 64 3
44 65 2
44 66 4
44 67 5
44 68 4
44 69 3
44 70 2
44 71 2
44 72 3
44 73 4
44 74 4
44 75 3
44 76 1
44 77 5
44 78 1
44 79 4
44 80 1
44 81 1
44 82 2
44 83 1
44 84 5
44 85 3
44 86 5
44 87 3
44 88 1
44 89 4
44 90 1
44 91 2
44 92 5
44 93 1
44 94 3
44 95 5
44 96 5
44 97 1
44 98 4
44 99 4
44 100 2
45 46 4
45 47 3
45 48 3
45 49 2
45 50 4
45 51 2
45 52 1
45 53 1
45 54 4
45 55 5
45 56 1
45 57 3
45 58 4
45 59 2
45 60 4
45 61 1
45 62 3
45 63 1
45 64 2
45 65 5
45 66 2
45 67 2
45 68 2
45 69 3
45 70 5
45 71 3
45 72 4
45 73 2
45 74 1
45 75 1
45 76 4
45 77 3
45 78 3
45 79 5
45 80 4
45 81 3
45 82 5
45 83 1
45 84 3
45 85 2
45 86 3
45 87 4
45 88 4
45 89 1
45 90 5
45 91 2
45 92 4
45 93 2
45 94 2
45 95 3
45 96 4
45 97 1
45 98 1
45 99 4
45 100 5
46 47 5
46 48 2
46 49 1
46 50 3
46 51 4
46 52 4
46 53 3
46 54 4
46 55 4
46 56 4
46 57 5
46 58 1
46 59 4
46 60 5
46 61 1
46 62 3
46 63 1
46 64 1
46 65 3
46 66 4
46 67 2
46 68 1
46 69 1
46 70 3
46 71 5
46 72 5
46 73 5
46 74 4
46 75 2
46 76 5
46 77 3
46 78 5
46 79 4
46 80 5
46 81 1
46 82 3
46 83 4
46 84 2
46 85 4
46 86 4
46 87 5
46 88 1
46 89 3
46 90 2
46 91 2
46 92 2
46 93 3
46 94 2
46 95 1
46 96 1
46 97 2
46 98 1
46 99 2
46 100 2
47 48 5
47 49 2
47 50 4
47 51 4
47 52 3
47 53 1
47 54 1
47 55 3
47 56 1
47 57 4
47 58 2
47 59 2
47 60 2
47 61 1
47 62 3
47 63 5
47 64 1
47 65 3
47 66 3
47 67 3
47 68 5
47 69 3
47 70 2
47 71 1
47 72 3
47 73 5
47 74 2
47 75 1
47 76 3
47 77 2
47 78 4
47 79 2
47 80 5
47 81 1
47 82 3
47 83 4
47 84 5
47 85 5
47 86 3
47 87 1
47 88 4
47 89 2
47 90 1
47 91 3
47 92 4
47 93 1
47 94 5
47 95 3
47 96 5
47 97 2
47 98 2
47 99 2
47 100 5
48 49 4
48 50 4
48 51 5
48 52 1
48 53 5
48 54 3
48 55 4
48 56 4
48 57 5
48 58 4
48 59 2
48 60 1
48 61 4
48 62 1
48 63 3
48 64 5
48 65 1
48 66 2
48 67 4
48 68 1
48 69 1
48 70 3
48 71 3
48 72 1
48 73 2
48 74 3
48 75 4
48 76 5
48 77 2
48 78 5
48 79 1
48 80 4
48 81 4
48 82 2
48 83 3
48 84 3
48 85 1
48 86 1
48 87 1
48 88 4
48 89 2
48 90 1
48 91 3
48 92 5
48 93 1
48 94 1
48 95 2
48 96 3
48 97 5
48 98 2
48 99 1
48 100 1
49 50 4
49 51 5
49 52 3
49 53 4
49 54 4
49 55 5
49 56 3
49 57 1
49 58 5
49 59 5
49 60 2
49 61 1
49 62 4
49 63 2
49 64 4
49 65 5
49 66 5
49 67 2
49 68 2
49 69 5
49 70 4
49 71 1
49 72 5
49 73 3
49 74 5
49 75 1
49 76 4
49 77 2
49 78 5
49 79 4
49 80 5
49 81 5
49 82 2
49 83 5
49 84 2
49 85 2
49 86 3
49 87 4
49 88 2
49 89 4
49 90 2
49 91 5
49 92 1
49 93 3
49 94 2
49 95 3
49 96 5
49 97 5
49 98 2
49 99 3
49 100 4
50 51 2
50 52 5
50 53 3
50 54 1
50 55 2
50 56 5
50 57 4
50 58 2
50 59 5
50 60 4
50 61 4
50 62 4
50 63 1
50 64 2
50 65 2
50 66 5
50 67 4
50 68 4
50 69 1
50 70 5
50 71 4
50 72 5
50 73 1
50 74 3
50 75 3
50 76 4
50 77 2
50 78 2
50 79 3
50 80 1
50 81 4
50 82 2
50 83 3
50 84 3
50 85 4
50 86 5
50 87 4
50 88 3
50 89 2
50 90 3
50 91 1
50 92 1
50 93 1
50 94 2
50 95 3
50 96 2
50 97 4
50 98 2
50 99 1
50 100 2
51 52 1
51 53 5
51 54 1
51 55 1
51 56 3
51 57 5
51 58 1
51 59 2
51 60 5
51 61 1
51 62 5
51 63 4
51 64 4
51 65 5
51 66 2
51 67 1
51 68 2
51 69 4
51 70 3
51 71 1
51 72 2
51 73 4
51 74 1
51 75 1
51 76 4
51 77 3
51 78 3
51 79 4
51 80 5
51 81 5
51 82 5
51 83 3
51 84 2
51 85 2
51 86 2
51 87 3
51 88 4
51 89 2
51 90 1
51 91 5
51 92 4
51 93 4
51 94 5
51 95 4
51 96 4
51 97 2
51 98 3
51 99 5
51 100 2
52 53 2
52 54 5
52 55 1
52 56 1
52 57 3
52 58 1
52 59 5
52 60 3
52 61 2
52 62 5
52 63 2
52 64 3
52 65 2
52 66 3
52 67 2
52 68 1
52 69 2
52 70 3
52 71 4
52 72 3
52 73 1
52 74 4
52 75 3
52 76 3
52 77 4
52 78 4
52 79 1
52 80 4
52 81 3
52 82 2
52 83 4
52 84 4
52 85 2
52 86 1
52 87 2
52 88 4
52 89 3
52 90 1
52 91 3
52 92 2
52 93 1
52 94 1
52 95 5
52 96 3
52 97 4
52 98 4
52 99 3
52 100 1
53 54 5
53 55 1
53 56 2
53 57 4
53 58 4
53 59 2
53 60 4
53 61 4
53 62 5
53 63 2
53 64 4
53 65 4
53 66 1
53 67 1
53 68 2
53 69 4
53 70 2
53 71 2
53 72 5
53 73 1
53 74 4
53 75 5
53 76 5
53 77 5
53 78 3
53 79 2
53 80 3
53 81 2
53 82 5
53 83 1
53 84 5
53 85 5
53 86 4
53 87 1
53 88 5
53 89 5
53 90 2
53 91 3
53 92 5
53 93 1
53 94 5
53 95 4
53 96 4
53 97 5
53 98 2
53 99 4
53 100 3
54 55 5
54 56 4
54 57 3
54 58 3
54 59 5
54 60 5
54 61 2
54 62 3
54 63 5
54 64 3
54 65 5
54 66 4
54 67 2
54 68 3
54 69 4
54 70 1
54 71 2
54 72 5
54 73 5
54 74 2
54 75 1
54 76 3
54 77 5
54 78 2
54 79 1
54 80 2
54 81 4
54 82 2
54 83 3
54 84 4
54 85 4
54 86 4
54 87 2
54 88 1
54 89 1
54 90 5
54 91 5
54 92 4
54 93 5
54 94 2
54 95 1
54 96 2
54 97 2
54 98 2
54 99 5
54 100 2
55 56 5
55 57 2
55 58 2
55 59 4
55 60 2
55 61 1
55 62 5
55 63 3
55 64 1
55 65 4
55 66 2
55 67 5
55 68 2
55 69 5
55 70 5
55 71 4
55 72 1
55 73 5
55 74 3
55 75 5
55 76 1
55 77 4
55 78 3
55 79 2
55 80 2
55 81 4
55 82 3
55 83 2
55 84 4
55 85 2
55 86 2
55 87 3
55 88 5
55 89 1
55 90 4
55 91 3
55 92 2
55 93 5
55 94 2
55 95 5
55 96 1
55 97 5
55 98 1
55 99 3
55 100 5
56 57 2
56 58 4
56 59 1
56 60 1
56 61 4
56 62 5
56 63 3
56 64 4
56 65 4
56 66 2
56 67 1
56 68 2
56 69 4
56 70 4
56 71 3
56 72 3
56 73 4
56 74 2
56 75 3
56 76 3
56 77 1
56 78 4
56 79 1
56 80 2
56 81 2
56 82 5
56 83 5
56 84 3
56 85 2
56 86 5
56 87 1
56 88 1
56 89 5
56 90 5
56 91 1
56 92 1
56 93 3
56 94 3
56 95 2
56 96 5
56 97 4
56 98 1
56 99 2
56 100 2
57 58 3
57 59 3
57 60 3
57 61 2
57 62 5
57 63 1
57 64 1
57 65 3
57 66 4
57 67 2
57 68 5
57 69 2
57 70 1
57 71 3
57 72 2
57 73 4
57 74 3
57 75 5
57 76 2
57 77 3
57 78 1
57 79 2
57 80 1
57 81 4
57 82 5
57 83 1
57 84 2
57 85 5
57 86 2
57 87 4
57 88 5
57 89 4
57 90 5
57 91 3
57 92 3
57 93 4
57 94 3
57 95 2
57 96 1
57 97 4
57 98 3
57 99 1
57 100 2
58 59 5
58 60 5
58 61 3
58 62 4
58 63 2
58 64 5
58 65 5
58 66 2
58 67 3
58 68 4
58 69 4
58 70 4
58 71 3
58 72 3
58 73 5
58 74 4
58 75 3
58 76 3
58 77 5
58 78 5
58 79 5
58 80 2
58 81 2
58 82 1
58 83 4
58 84 5
58 85 5
58 86 4
58 87 4
58 88 4
58 89 2
58 90 5
58 91 5
58 92 2
58 93 2
58 94 3
58 95 1
58 96 1
58 97 2
58 98 1
58 99 2
58 100 1
59 60 1
59 61 4
59 62 5
59 63 2
59 64 2
59 65 1
59 66 4
59 67 3
59 68 1
59 69 4
59 70 5
59 71 2
59 72 2
59 73 2
59 74 5
59 75 3
59 76 3
59 77 2
59 78 4
59 79 2
59 80 1
59 81 5
59 82 2
59 83 3
59 84 3
59 85 1
59 86 3
59 87 1
59 88 3
59 89 2
59 90 5
59 91 2
59 92 5
59 93 4
59 94 1
59 95 5
59 96 2
59 97 1
59 98 1
59 99 2
59 100 1
60 61 3
60 62 5
60 63 2
60 64 1
60 65 2
60 66 4
60 67 1
60 68 3
60 69 3
60 70 2
60 71 2
60 72 5
60 73 5
60 74 4
60 75 2
60 76 4
60 77 2
60 78 5
60 79 1
60 80 4
60 81 2
60 82 3
60 83 4
60 84 2
60 85 3
60 86 2
60 87 3
60 88 3
60 89 2
60 90 4
60 91 3
60 92 2
60 93 3
60 94 4
60 95 1
60 96 3
60 97 2
60 98 1
60 99 3
60 100 1
61 62 5
61 63 5
61 64 1
61 65 5
61 66 4
61 67 4
61 68 3
61 69 2
61 70 5
61 71 3
61 72 4
61 73 4
61 74 4
61 75 5
61 76 2
61 77 1
61 78 1
61 79 4
61 80 4
61 81 3
61 82 3
61 83 3
61 84 2
61 85 2
61 86 5
61 87 3
61 88 2
61 89 3
61 90 1
61 91 5
61 92 4
61 93 2
61 94 5
61 95 3
61 96 4
61 97 4
61 98 5
61 99 2
61 100 4
62 63 3
62 64 2
62 65 3
62 66 2
62 67 2
62 68 4
62 69 4
62 70 1
62 71 3
62 72 2
62 73 3
62 74 4
62 75 1
62 76 1
62 77 5
62 78 2
62 79 1
62 80 4
62 81 4
62 82 3
62 83 2
62 84 1
62 85 5
62 86 4
62 87 3
62 88 4
62 89 3
62 90 1
62 91 5
62 92 1
62 93 5
62 94 3
62 95 3
62 96 2
62 97 1
62 98 3
62 99 1
62 100 1
63 64 5
63 65 3
63 66 5
63 67 1
63 68 1
63 69 4
63 70 2
63 71 4
63 72 2
63 73 2
63 74 5
63 75 1
63 76 5
63 77 1
63 78 5
63 79 5
63 80 2
63 81 2
63 82 2
63 83 4
63 84 4
63 85 5
63 86 1
63 87 1
63 88 5
63 89 4
63 90 5
63 91 1
63 92 1
63 93 5
63 94 2
63 95 1
63 96 4
63 97 1
63 98 4
63 99 5
63 100 2
64 65 2
64 66 3
64 67 3
64 68 3
64 69 5
64 70 3
64 71 3
64 72 5
64 73 3
64 74 4
64 75 5
64 76 5
64 77 4
64 78 5
64 79 3
64 80 1
64 81 4
64 82 1
64 83 2
64 84 2
64 85 3
64 86 3
64 87 4
64 88 3
64 89 5
64 90 4
64 91 2
64 92 5
64 93 1
64 94 2
64 95 1
64 96 1
64 97 1
64 98 2
64 99 4
64 100 1
65 66 5
65 67 1
65 68 4
65 69 3
65 70 1
65 71 2
65 72 4
65 73 1
65 74 5
65 75 3
65 76 5
65 77 4
65 78 3
65 79 5
65 80 4
65 81 4
65 82 2
65 83 3
65 84 2
65 85 5
65 86 4
65 87 2
65 88 4
65 89 3
65 90 2
65 91 2
65 92 2
65 93 4
65 94 3
65 95 2
65 96 3
65 97 2
65 98 1
65 99 5
65 100 1
66 67 1
66 68 2
66 69 4
66 70 2
66 71 5
66 72 3
66 73 4
66 74 3
66 75 4
66 76 2
66 77 2
66 78 1
66 79 5
66 80 2
66 81 3
66 82 3
66 83 1
66 84 5
66 85 3
66 86 3
66 87 3
66 88 2
66 89 1
66 90 2
66 91 5
66 92 5
66 93 5
66 94 4
66 95 4
66 96 1
66 97 2
66 98 4
66 99 1
66 100 1
67 68 5
67 69 2
67 70 3
67 71 5
67 72 5
67 73 4
67 74 3
67 75 5
67 76 3
67 77 1
67 78 2
67 79 4
67 80 5
67 81 2
67 82 4
67 83 5
67 84 2
67 85 4
67 86 1
67 87 4
67 88 5
67 89 5
67 90 2
67 91 3
67 92 1
67 93 2
67 94 2
67 95 2
67 96 5
67 97 5
67 98 3
67 99 4
67 100 1
68 69 2
68 70 4
68 71 4
68 72 4
68 73 2
68 74 5
68 75 3
68 76 3
68 77 5
68 78 1
68 79 5
68 80 3
68 81 5
68 82 5
68 83 3
68 84 1
68 85 1
68 86 4
68 87 2
68 88 1
68 89 3
68 90 5
68 91 3
68 92 5
68 93 5
68 94 5
68 95 4
68 96 3
68 97 2
68 98 5
68 99 2
68 100 5
69 70 4
69 71 1
69 72 3
69 73 1
69 74 1
69 75 2
69 76 2
69 77 2
69 78 4
69 79 4
69 80 4
69 81 3
69 82 4
69 83 1
69 84 2
69 85 2
69 86 4
69 87 2
69 88 4
69 89 5
69 90 5
69 91 3
69 92 2
69 93 4
69 94 4
69 95 3
69 96 4
69 97 4
69 98 3
69 99 4
69 100 1
70 71 3
70 72 4
70 73 1
70 74 3
70 75 2
70 76 1
70 77 2
70 78 3
70 79 2
70 80 5
70 81 3
70 82 3
70 83 1
70 84 1
70 85 5
70 86 4
70 87 2
70 88 2
70 89 2
70 90 4
70 91 4
70 92 5
70 93 2
70 94 4
70 95 5
70 96 2
70 97 4
70 98 3
70 99 4
70 100 3
71 72 5
71 73 2
71 74 1
71 75 2
71 76 3
71 77 2
71 78 3
71 79 5
71 80 4
71 81 1
71 82 5
71 83 1
71 84 2
71 85 5
71 86 1
71 87 4
71 88 1
71 89 4
71 90 2
71 91 1
71 92 3
71 93 4
71 94 4
71 95 5
71 96 3
71 97 5
71 98 2
71 99 1
71 100 3
72 73 4
72 74 3
72 75 1
72 76 5
72 77 2
72 78 3
72 79 1
72 80 5
72 81 3
72 82 2
72 83 4
72 84 5
72 85 5
72 86 3
72 87 3
72 88 3
72 89 5
72 90 2
72 91 2
72 92 2
72 93 1
72 94 3
72 95 1
72 96 5
72 97 4
72 98 2
72 99 4
72 100 2
73 74 1
73 75 5
73 76 1
73 77 2
73 78 1
73 79 5
73 80 5
73 81 4
73 82 2
73 83 3
73 84 5
73 85 2
73 86 2
73 87 1
73 88 5
73 89 2
73 90 3
73 91 1
73 92 5
73 93 3
73 94 3
73 95 1
73 96 3
73 97 4
73 98 2
73 99 2
73 100 1
74 75 1
74 76 4
74 77 1
74 78 3
74 79 3
74 80 4
74 81 1
74 82 3
74 83 2
74 84 4
74 85 4
74 86 3
74 87 3
74 88 4
74 89 1
74 90 4
74 91 3
74 92 1
74 93 3
74 94 4
74 95 3
74 96 5
74 97 2
74 98 3
74 99 3
74 100 5
75 76 2
75 77 1
75 78 4
75 79 2
75 80 4
75 81 4
75 82 3
75 83 2
75 84 5
75 85 5
75 86 2
75 87 1
75 88 4
75 89 5
75 90 4
75 91 1
75 92 1
75 93 3
75 94 5
75 95 5
75 96 2
75 97 5
75 98 4
75 99 4
75 100 4
76 77 5
76 78 3
76 79 1
76 80 2
76 81 4
76 82 2
76 83 3
76 84 4
76 85 3
76 86 3
76 87 2
76 88 2
76 89 3
76 90 1
76 91 1
76 92 4
76 93 5
76 94 3
76 95 3
76 96 2
76 97 4
76 98 4
76 99 2
76 100 1
77 78 4
77 79 1
77 80 4
77 81 3
77 82 2
77 83 3
77 84 5
77 85 3
77 86 1
77 87 4
77 88 3
77 89 5
77 90 4
77 91 1
77 92 3
77 93 2
77 94 1
77 95 5
77 96 5
77 97 5
77 98 3
77 99 5
77 100 2
78 79 3
78 80 4
78 81 2
78 82 3
78 83 4
78 84 3
78 85 3
78 86 3
78 87 4
78 88 1
78 89 5
78 90 3
78 91 1
78 92 3
78 93 3
78 94 5
78 95 4
78 96 1
78 97 5
78 98 1
78 99 4
78 100 3
79 80 5
79 81 1
79 82 4
79 83 4
79 84 3
79 85 3
79 86 4
79 87 3
79 88 4
79 89 2
79 90 3
79 91 1
79 92 2
79 93 3
79 94 2
79 95 5
79 96 2
79 97 2
79 98 1
79 99 1
79 100 5
80 81 3
80 82 1
80 83 4
80 84 3
80 85 5
80 86 4
80 87 1
80 88 4
80 89 1
80 90 1
80 91 1
80 92 5
80 93 4
80 94 4
80 95 4
80 96 4
80 97 3
80 98 2
80 99 2
80 100 3
81 82 3
81 83 3
81 84 2
81 85 1
81 86 5
81 87 3
81 88 4
81 89 3
81 90 1
81 91 4
81 92 4
81 93 5
81 94 4
81 95 2
81 96 4
81 97 4
81 98 1
81 99 5
81 100 4
82 83 3
82 84 5
82 85 2
82 86 3
82 87 1
82 88 2
82 89 1
82 90 1
82 91 5
82 92 1
82 93 5
82 94 5
82 95 3
82 96 5
82 97 1
82 98 5
82 99 5
82 100 1
83 84 3
83 85 4
83 86 3
83 87 4
83 88 3
83 89 5
83 90 1
83 91 1
83 92 2
83 93 4
83 94 2
83 95 3
83 96 1
83 97 1
83 98 4
83 99 5
83 100 2
84 85 5
84 86 5
84 87 4
84 88 3
84 89 3
84 90 5
84 91 1
84 92 3
84 93 1
84 94 4
84 95 2
84 96 4
84 97 1
84 98 4
84 99 3
84 100 1
85 86 1
85 87 2
85 88 4
85 89 5
85 90 2
85 91 1
85 92 4
85 93 2
85 94 1
85 95 1
85 96 3
85 97 2
85 98 1
85 99 2
85 100 1
86 87 5
86 88 5
86 89 5
86 90 5
86 91 4
86 92 3
86 93 5
86 94 1
86 95 5
86 96 2
86 97 4
86 98 4
86 99 3
86 100 4
87 88 1
87 89 2
87 90 5
87 91 1
87 92 3
87 93 4
87 94 1
87 95 3
87 96 1
87 97 4
87 98 3
87 99 5
87 100 4
88 89 3
88 90 1
88 91 1
88 92 2
88 93 1
88 94 4
88 95 2
88 96 4
88 97 3
88 98 4
88 99 4
88 100 4
89 90 3
89 91 5
89 92 1
89 93 5
89 94 2
89 95 3
89 96 5
89 97 5
89 98 1
89 99 5
89 100 4
90 91 3
90 92 5
90 93 2
90 94 3
90 95 2
90 96 2
90 97 4
90 98 3
90 99 3
90 100 1
91 92 3
91 93 4
91 94 1
91 95 3
91 96 2
91 97 3
91 98 1
91 99 3
91 100 4
92 93 2
92 94 2
92 95 1
92 96 3
92 97 2
92 98 4
92 99 3
92 100 2
93 94 4
93 95 2
93 96 1
93 97 3
93 98 4
93 99 5
93 100 3
94 95 1
94 96 1
94 97 3
94 98 5
94 99 5
94 100 3
95 96 4
95 97 2
95 98 3
95 99 1
95 100 4
96 97 5
96 98 4
96 99 2
96 100 1
97 98 5
97 99 3
97 100 5
98 99 4
98 100 4
99 100 3
